<number of tasks>
50

<cycle time>
1000

<order strength>
0.196


<task times>
1 305
2 147
3 241
4 83
5 88
6 47
7 117
8 165
9 162
10 195
11 100
12 21
13 156
14 26
15 227
16 175
17 172
18 275
19 186
20 100
21 111
22 94
23 34
24 189
25 176
26 238
27 104
28 273
29 153
30 156
31 165
32 146
33 153
34 224
35 137
36 194
37 150
38 147
39 149
40 276
41 87
42 118
43 99
44 98
45 111
46 43
47 66
48 282
49 44
50 98

<precedence relations>
1,7
2,11
2,12
3,8
3,9
3,29
4,35
6,10
6,13
7,19
7,44
8,17
8,21
9,14
9,20
10,15
12,15
12,16
13,18
16,23
16,25
19,22
20,24
20,49
22,26
22,28
23,29
25,27
25,41
26,32
26,34
26,36
26,41
27,31
28,33
29,30
29,33
29,35
29,37
30,39
31,38
31,42
33,50
34,45
37,40
37,41
38,44
38,49
39,45
39,48
39,50
41,43
41,46
41,47

<end>
